c Circuit-CNF generated by TG-PRO v1.0 (c) Huan Chen and Joao Marques-Silva
p cnf 652 1722
1 2 0
-1 -2 0
3 -4 0
3 -5 0
-3 4 5 0
6 -7 0
6 -8 0
-6 7 8 0
9 -10 0
9 -11 0
-9 10 11 0
12 -13 0
12 -14 0
-12 13 14 0
15 -16 0
15 -17 0
-15 16 17 0
18 -19 0
18 -20 0
-18 19 20 0
21 -22 0
21 -23 0
-21 22 23 0
24 -25 0
24 -26 0
-24 25 26 0
27 28 0
27 29 0
-27 -28 -29 0
30 -31 0
30 -32 0
-30 31 32 0
33 -34 0
33 -35 0
-33 34 35 0
36 -37 0
36 -38 0
-36 37 38 0
-39 -40 0
-39 -41 0
39 40 41 0
42 43 0
42 44 0
-42 -43 -44 0
45 46 0
45 47 0
-45 -46 -47 0
48 49 0
48 50 0
-48 -49 -50 0
-51 -52 0
-51 -53 0
51 52 53 0
-54 -55 0
-54 -56 0
54 55 56 0
57 58 0
57 59 0
-57 -58 -59 0
-60 -61 0
-60 -62 0
60 61 62 0
63 64 0
63 65 0
-63 -64 -65 0
-66 67 0
-66 68 0
66 -67 -68 0
69 70 0
69 71 0
-69 -70 -71 0
-72 -73 0
-72 -74 0
72 73 74 0
-75 -76 0
-75 -77 0
75 76 77 0
-78 -79 0
-78 -80 0
78 79 80 0
-81 -82 0
-81 -83 0
81 82 83 0
-84 -85 0
-84 -86 0
84 85 86 0
87 88 0
87 89 0
-87 -88 -89 0
-90 -91 0
-90 -92 0
90 91 92 0
93 94 0
-93 -94 0
95 96 0
-95 -96 0
97 98 0
-97 -98 0
99 100 0
-99 -100 0
101 102 0
-101 -102 0
103 101 0
-103 -101 0
104 102 0
-104 -102 0
105 62 0
-105 -62 0
106 107 0
-106 -107 0
108 109 0
-108 -109 0
110 111 0
-110 -111 0
112 113 0
-112 -113 0
44 114 0
-44 -114 0
115 116 0
-115 -116 0
117 118 0
-117 -118 0
119 120 0
-119 -120 0
121 122 0
-121 -122 0
123 122 0
-123 -122 0
124 125 0
-124 -125 0
126 127 0
-126 -127 0
128 129 0
-128 -129 0
130 131 0
-130 -131 0
132 133 0
-132 -133 0
134 135 0
-134 -135 0
136 94 0
136 98 0
-136 -94 -98 0
137 136 0
-137 -136 0
138 96 0
138 100 0
-138 -96 -100 0
139 138 0
-139 -138 0
140 99 0
-140 -99 0
141 96 0
141 102 0
-141 -96 -102 0
142 141 0
-142 -141 0
143 98 0
143 62 0
-143 -98 -62 0
144 143 0
-144 -143 0
145 100 0
145 62 0
-145 -100 -62 0
146 145 0
-146 -145 0
147 105 0
-147 -105 0
148 147 0
-148 -147 0
149 102 0
149 107 0
-149 -102 -107 0
150 149 0
-150 -149 0
151 106 0
-151 -106 0
152 111 0
152 114 0
-152 -111 -114 0
153 152 0
-153 -152 0
154 109 0
154 114 0
-154 -109 -114 0
155 154 0
-155 -154 0
156 154 0
-156 -154 0
157 44 0
-157 -44 0
158 157 0
-158 -157 0
159 113 0
159 116 0
-159 -113 -116 0
160 159 0
-160 -159 0
-161 -109 0
-161 -116 0
161 109 116 0
162 161 0
-162 -161 0
-163 -114 0
-163 -116 0
163 114 116 0
164 163 0
-164 -163 0
165 97 0
-165 -97 0
166 -107 0
166 -122 0
-166 107 122 0
167 166 0
-167 -166 0
168 97 0
168 100 0
-168 -97 -100 0
169 168 0
-169 -168 0
-170 -96 0
-170 -99 0
170 96 99 0
171 170 0
-171 -170 0
172 171 0
-172 -171 0
173 98 0
173 99 0
-173 -98 -99 0
174 173 0
-174 -173 0
175 174 0
-175 -174 0
176 142 0
-176 -142 0
177 176 0
-177 -176 0
178 146 0
-178 -146 0
179 178 0
-179 -178 0
-180 -95 0
-180 -145 0
180 95 145 0
181 180 0
-181 -180 0
182 102 0
182 105 0
-182 -102 -105 0
183 182 0
-183 -182 0
-184 -93 0
-184 -100 0
184 93 100 0
185 184 0
-185 -184 0
186 185 0
-186 -185 0
187 104 0
187 106 0
-187 -104 -106 0
188 187 0
-188 -187 0
189 108 0
189 111 0
-189 -108 -111 0
190 189 0
-190 -189 0
191 110 0
191 114 0
-191 -110 -114 0
192 191 0
-192 -191 0
193 -110 0
193 -194 0
-193 110 194 0
195 193 0
-195 -193 0
196 109 0
196 110 0
-196 -109 -110 0
197 196 0
-197 -196 0
198 197 0
-198 -197 0
65 107 0
65 112 0
-65 -107 -112 0
199 65 0
-199 -65 0
200 146 0
-200 -146 0
201 200 0
-201 -200 0
202 155 0
-202 -155 0
203 202 0
-203 -202 0
204 113 0
204 44 0
-204 -113 -44 0
205 204 0
-205 -204 0
206 113 0
-206 -113 0
-207 -118 0
-207 -119 0
207 118 119 0
208 207 0
-208 -207 0
209 210 0
209 126 0
-209 -210 -126 0
23 209 0
-23 -209 0
8 209 0
-8 -209 0
211 182 0
-211 -182 0
212 211 0
-212 -211 0
-213 -106 0
-213 -168 0
213 106 168 0
214 213 0
-214 -213 0
215 96 0
-215 -96 0
216 215 0
-216 -215 0
217 93 0
-217 -93 0
218 217 0
-218 -217 0
219 150 0
219 100 0
-219 -150 -100 0
220 219 0
-220 -219 0
221 188 0
-221 -188 0
222 221 0
-222 -221 0
223 224 0
223 105 0
-223 -224 -105 0
225 223 0
-225 -223 0
226 112 0
226 68 0
-226 -112 -68 0
227 226 0
-227 -226 0
228 229 0
228 153 0
-228 -229 -153 0
230 228 0
-230 -228 0
231 205 0
-231 -205 0
232 160 0
232 111 0
-232 -160 -111 0
233 232 0
-233 -232 0
50 98 0
50 183 0
-50 -98 -183 0
234 50 0
-234 -50 0
235 218 0
-235 -218 0
236 223 0
236 237 0
-236 -223 -237 0
238 236 0
-238 -236 0
239 160 0
239 192 0
-239 -160 -192 0
240 239 0
-240 -239 0
241 242 0
241 99 0
-241 -242 -99 0
243 241 0
-243 -241 0
244 95 0
244 220 0
-244 -95 -220 0
245 244 0
-245 -244 0
246 247 0
246 248 0
-246 -247 -248 0
249 246 0
-249 -246 0
250 246 0
-250 -246 0
-251 231 0
-251 226 0
251 -231 -226 0
252 251 0
-252 -251 0
253 233 0
253 156 0
-253 -233 -156 0
254 253 0
-254 -253 0
-255 -105 0
-255 -256 0
255 105 256 0
257 255 0
-257 -255 0
258 257 0
-258 -257 0
259 243 0
-259 -243 0
260 259 0
-260 -259 0
261 250 0
-261 -250 0
262 263 0
262 264 0
-262 -263 -264 0
56 262 0
-56 -262 0
265 260 0
-265 -260 0
266 265 0
-266 -265 0
267 -268 0
267 -269 0
-267 268 269 0
270 267 0
-270 -267 0
271 270 0
-271 -270 0
272 261 0
-272 -261 0
273 261 0
-273 -261 0
274 275 0
274 254 0
-274 -275 -254 0
276 274 0
-276 -274 0
277 262 0
277 278 0
-277 -262 -278 0
279 277 0
-279 -277 0
-280 -118 0
-280 -277 0
280 118 277 0
281 280 0
-281 -280 0
282 283 0
282 262 0
-282 -283 -262 0
284 282 0
-284 -282 0
-285 -102 0
-285 -272 0
285 102 272 0
286 285 0
-286 -285 0
287 286 0
-287 -286 0
-288 -219 0
-288 -273 0
288 219 273 0
289 288 0
-289 -288 0
290 289 0
-290 -289 0
-291 -282 0
-291 -141 0
291 282 141 0
292 291 0
-292 -291 0
293 291 0
-293 -291 0
294 -295 0
294 -296 0
-294 295 296 0
297 294 0
-297 -294 0
298 294 0
298 299 0
-298 -294 -299 0
300 298 0
-300 -298 0
301 298 0
-301 -298 0
302 303 0
302 304 0
-302 -303 -304 0
305 302 0
-305 -302 0
306 -307 0
306 -308 0
-306 307 308 0
309 306 0
-309 -306 0
310 306 0
-310 -306 0
311 301 0
-311 -301 0
312 313 0
312 314 0
-312 -313 -314 0
315 312 0
-315 -312 0
316 317 0
316 318 0
-316 -317 -318 0
319 316 0
-319 -316 0
320 319 0
-320 -319 0
-321 -117 0
-321 -312 0
321 117 312 0
322 321 0
-322 -321 0
-323 -119 0
-323 -309 0
323 119 309 0
324 323 0
-324 -323 0
325 324 0
-325 -324 0
326 323 0
-326 -323 0
327 326 0
-327 -326 0
328 327 0
-328 -327 0
329 328 0
-329 -328 0
29 -330 0
29 -264 0
-29 330 264 0
77 29 0
-77 -29 0
331 -332 0
331 -333 0
-331 332 333 0
334 331 0
-334 -331 0
34 334 0
-34 -334 0
-335 107 0
-335 194 0
335 -107 -194 0
-67 -94 0
-67 -102 0
67 94 102 0
-336 67 0
-336 100 0
336 -67 -100 0
-337 106 0
-337 108 0
337 -106 -108 0
-338 99 0
-338 132 0
338 -99 -132 0
339 104 0
339 62 0
-339 -104 -62 0
-340 339 0
-340 182 0
340 -339 -182 0
341 -96 0
341 -105 0
-341 96 105 0
342 102 0
342 145 0
-342 -102 -145 0
-343 341 0
-343 342 0
343 -341 -342 0
-344 143 0
-344 150 0
344 -143 -150 0
-68 -108 0
-68 -114 0
68 108 114 0
-345 346 0
-345 68 0
345 -346 -68 0
-347 -107 0
-347 -154 0
347 107 154 0
-348 113 0
-348 347 0
348 -113 -347 0
-349 350 0
-349 204 0
349 -350 -204 0
-351 110 0
-351 160 0
351 -110 -160 0
-79 352 0
-79 160 0
79 -352 -160 0
-353 167 0
-353 44 0
353 -167 -44 0
-40 169 0
-40 182 0
40 -169 -182 0
-354 182 0
-354 213 0
354 -182 -213 0
-355 96 0
-355 213 0
355 -96 -213 0
-356 93 0
-356 96 0
356 -93 -96 0
357 339 0
357 358 0
-357 -339 -358 0
-237 -96 0
-237 -97 0
237 96 97 0
-41 357 0
-41 237 0
41 -357 -237 0
359 360 0
359 342 0
-359 -360 -342 0
-361 107 0
-361 359 0
361 -107 -359 0
-362 99 0
-362 183 0
362 -99 -183 0
363 99 0
363 150 0
-363 -99 -150 0
-364 168 0
-364 363 0
364 -168 -363 0
-365 366 0
-365 170 0
365 -366 -170 0
367 191 0
367 193 0
-367 -191 -193 0
-368 369 0
-368 161 0
368 -369 -161 0
-370 -62 0
-370 -109 0
370 62 109 0
-371 372 0
-371 199 0
371 -372 -199 0
-373 374 0
-373 199 0
373 -374 -199 0
375 376 0
375 377 0
-375 -376 -377 0
-16 378 0
-16 379 0
16 -378 -379 0
380 381 0
380 196 0
-380 -381 -196 0
-382 112 0
-382 380 0
382 -112 -380 0
-383 190 0
-383 205 0
383 -190 -205 0
-384 189 0
-384 205 0
384 -189 -205 0
-385 -113 0
-385 -164 0
385 113 164 0
386 387 0
386 122 0
-386 -387 -122 0
388 111 0
388 194 0
-388 -111 -194 0
-389 390 0
-389 388 0
389 -390 -388 0
391 392 0
391 393 0
-391 -392 -393 0
-394 190 0
-394 391 0
394 -190 -391 0
395 396 0
395 397 0
-395 -396 -397 0
-398 109 0
-398 395 0
398 -109 -395 0
399 400 0
399 343 0
-399 -400 -343 0
-401 94 0
-401 399 0
401 -94 -399 0
402 403 0
402 187 0
-402 -403 -187 0
-404 62 0
-404 402 0
404 -62 -402 0
405 406 0
405 407 0
-405 -406 -407 0
-408 405 0
-408 139 0
408 -405 -139 0
-409 -115 0
-409 -226 0
409 115 226 0
-410 -105 0
-410 -149 0
410 105 149 0
-411 409 0
-411 410 0
411 -409 -410 0
-412 151 0
-412 227 0
412 -151 -227 0
-413 379 0
-413 230 0
413 -379 -230 0
-268 414 0
-268 347 0
268 -414 -347 0
-415 -114 0
-415 -232 0
415 114 232 0
-74 107 0
-74 415 0
74 -107 -415 0
416 103 0
416 216 0
-416 -103 -216 0
-417 98 0
-417 416 0
417 -98 -416 0
-418 102 0
-418 235 0
418 -102 -235 0
419 420 0
419 363 0
-419 -420 -363 0
-421 98 0
-421 419 0
421 -98 -419 0
422 423 0
422 424 0
-422 -423 -424 0
-425 -109 0
-425 -111 0
425 109 111 0
-269 422 0
-269 425 0
269 -422 -425 0
-83 100 0
-83 238 0
83 -100 -238 0
426 112 0
426 427 0
-426 -112 -427 0
-428 429 0
-428 426 0
428 -429 -426 0
430 -371 0
430 -345 0
-430 371 345 0
-431 432 0
-431 67 0
431 -432 -67 0
433 -349 0
433 -382 0
-433 349 382 0
-80 116 0
-80 433 0
80 -116 -433 0
434 435 0
434 436 0
-434 -435 -436 0
-437 116 0
-437 434 0
437 -116 -434 0
438 44 0
438 439 0
-438 -44 -439 0
-61 253 0
-61 438 0
61 -253 -438 0
440 441 0
440 424 0
-440 -441 -424 0
-86 440 0
-86 425 0
86 -440 -425 0
442 -443 0
442 -384 0
-442 443 384 0
-444 107 0
-444 442 0
444 -107 -442 0
445 -398 0
445 -335 0
-445 398 335 0
-73 111 0
-73 445 0
73 -111 -445 0
-446 415 0
-446 245 0
446 -415 -245 0
447 448 0
447 244 0
-447 -448 -244 0
-449 447 0
-449 240 0
449 -447 -240 0
-450 111 0
-450 447 0
450 -111 -447 0
451 -383 0
451 -246 0
-451 383 246 0
-452 -453 0
-452 -219 0
452 453 219 0
-454 455 0
-454 452 0
454 -455 -452 0
456 106 0
456 457 0
-456 -106 -457 0
458 459 0
458 410 0
-458 -459 -410 0
-460 456 0
-460 458 0
460 -456 -458 0
-461 252 0
-461 452 0
461 -252 -452 0
462 253 0
462 256 0
-462 -253 -256 0
-463 -97 0
-463 -149 0
463 97 149 0
-308 464 0
-308 180 0
308 -464 -180 0
-465 -62 0
-465 -187 0
465 62 187 0
-85 254 0
-85 465 0
85 -254 -465 0
466 -417 0
466 -179 0
-466 417 179 0
-467 107 0
-467 466 0
467 -107 -466 0
468 -469 0
468 -186 0
-468 469 186 0
-470 471 0
-470 468 0
470 -471 -468 0
472 473 0
472 94 0
-472 -473 -94 0
-92 95 0
-92 472 0
92 -95 -472 0
474 475 0
474 476 0
-474 -475 -476 0
-20 474 0
-20 379 0
20 -474 -379 0
-477 105 0
-477 266 0
477 -105 -266 0
478 -449 0
478 -446 0
-478 449 446 0
-479 108 0
-479 478 0
479 -108 -478 0
480 -365 0
480 -450 0
-480 365 450 0
-481 480 0
-481 409 0
481 -480 -409 0
-482 -460 0
-482 -100 0
482 460 100 0
-296 97 0
-296 482 0
296 -97 -482 0
483 484 0
483 485 0
-483 -484 -485 0
-486 98 0
-486 483 0
486 -98 -483 0
-487 94 0
-487 276 0
487 -94 -276 0
-53 234 0
-53 280 0
53 -234 -280 0
488 120 0
488 283 0
-488 -120 -283 0
489 119 0
489 278 0
-489 -119 -278 0
-490 488 0
-490 489 0
490 -488 -489 0
491 -336 0
491 -477 0
-491 336 477 0
-492 491 0
-492 182 0
492 -491 -182 0
493 -479 0
493 -481 0
-493 479 481 0
-307 494 0
-307 493 0
307 -494 -493 0
495 496 0
495 363 0
-495 -496 -363 0
-497 -95 0
-497 -282 0
497 95 282 0
-498 495 0
-498 497 0
498 -495 -497 0
499 500 0
499 501 0
-499 -500 -501 0
-502 503 0
-502 497 0
502 -503 -497 0
504 -344 0
504 -467 0
-504 344 467 0
-505 506 0
-505 207 0
505 -506 -207 0
-507 508 0
-507 130 0
507 -508 -130 0
509 98 0
509 102 0
-509 -98 -102 0
-510 -120 0
-510 -281 0
510 120 281 0
-511 512 0
-511 510 0
511 -512 -510 0
-513 514 0
-513 510 0
513 -514 -510 0
515 -354 0
515 -421 0
-515 354 421 0
-14 515 0
-14 510 0
14 -515 -510 0
358 100 0
358 102 0
-358 -100 -102 0
-516 517 0
-516 510 0
516 -517 -510 0
-299 -120 0
-299 -279 0
299 120 279 0
-518 519 0
-518 299 0
518 -519 -299 0
-520 220 0
-520 301 0
520 -220 -301 0
521 -411 0
521 -222 0
-521 411 222 0
-522 523 0
-522 301 0
522 -523 -301 0
-524 -284 0
-524 -208 0
524 284 208 0
-5 310 0
-5 524 0
5 -310 -524 0
525 526 0
525 527 0
-525 -526 -527 0
-528 529 0
-528 207 0
528 -529 -207 0
-530 -95 0
-530 -102 0
530 95 102 0
-52 531 0
-52 321 0
52 -531 -321 0
-532 -118 0
-532 -311 0
532 118 311 0
-26 532 0
-26 482 0
26 -532 -482 0
533 -461 0
533 -338 0
-533 461 338 0
-35 533 0
-35 532 0
35 -533 -532 0
534 -271 0
534 -290 0
-534 271 290 0
-38 534 0
-38 532 0
38 -534 -532 0
-535 -536 0
-535 -315 0
535 536 315 0
-537 302 0
-537 535 0
537 -302 -535 0
538 -320 0
538 -498 0
-538 320 498 0
-11 538 0
-11 207 0
11 -538 -207 0
539 540 0
539 541 0
-539 -540 -541 0
-542 -120 0
-542 -322 0
542 120 322 0
-543 539 0
-543 542 0
543 -539 -542 0
544 545 0
544 546 0
-544 -545 -546 0
-547 548 0
-547 542 0
547 -548 -542 0
-549 124 0
-549 542 0
549 -124 -542 0
550 107 0
550 113 0
-550 -107 -113 0
-551 552 0
-551 542 0
551 -552 -542 0
553 -348 0
553 -444 0
-553 348 444 0
-17 553 0
-17 542 0
17 -553 -542 0
-19 128 0
-19 542 0
19 -128 -542 0
554 94 0
554 100 0
-554 -94 -100 0
-555 556 0
-555 542 0
555 -556 -542 0
557 -356 0
557 -401 0
-557 356 401 0
-25 558 0
-25 542 0
25 -558 -542 0
559 560 0
559 561 0
-559 -560 -561 0
-31 562 0
-31 542 0
31 -562 -542 0
563 -325 0
563 -300 0
-563 325 300 0
564 -287 0
564 -258 0
-564 287 258 0
-565 566 0
-565 151 0
565 -566 -151 0
-567 563 0
-567 285 0
567 -563 -285 0
568 -412 0
568 -201 0
-568 412 201 0
-569 570 0
-569 568 0
569 -570 -568 0
-571 572 0
-571 252 0
571 -572 -252 0
-573 327 0
-573 288 0
573 -327 -288 0
574 107 0
574 542 0
-574 -107 -542 0
575 111 0
575 379 0
-575 -111 -379 0
-330 574 0
-330 575 0
330 -574 -575 0
-576 -577 0
-576 -181 0
576 577 181 0
-332 578 0
-332 374 0
332 -578 -374 0
579 -373 0
579 -203 0
-579 373 203 0
-580 579 0
-580 576 0
580 -579 -576 0
581 -329 0
581 -520 0
-581 329 520 0
-582 581 0
-582 240 0
582 -581 -240 0
583 -571 0
583 -567 0
-583 571 567 0
-333 584 0
-333 151 0
333 -584 -151 0
585 -569 0
585 -573 0
-585 569 573 0
-586 117 0
-586 585 0
586 -117 -585 0
587 -588 0
587 -522 0
-587 588 522 0
-32 117 0
-32 587 0
32 -117 -587 0
589 -586 0
589 -580 0
-589 586 580 0
-37 589 0
-37 165 0
37 -589 -165 0
590 -100 0
590 -62 0
-590 100 62 0
591 -62 0
591 -138 0
-591 62 138 0
592 -107 0
592 -509 0
-592 107 509 0
593 -104 0
593 -136 0
-593 104 136 0
594 -102 0
594 -145 0
-594 102 145 0
224 -102 0
224 -106 0
-224 102 106 0
396 -116 0
396 -550 0
-396 116 550 0
229 -108 0
229 -112 0
-229 108 112 0
64 -107 0
64 -112 0
-64 107 112 0
595 -110 0
595 -112 0
-595 110 112 0
376 -109 0
376 -152 0
-376 109 152 0
381 -106 0
381 -152 0
-381 106 152 0
596 -113 0
596 -154 0
-596 113 154 0
392 -112 0
392 -44 0
-392 112 44 0
43 -113 0
43 -115 0
-43 113 115 0
47 -109 0
47 -115 0
-47 109 115 0
393 -114 0
393 -115 0
-393 114 115 0
397 -107 0
397 -121 0
-397 107 121 0
597 -95 0
597 -137 0
-597 95 137 0
598 -97 0
598 -139 0
-598 97 139 0
599 -600 0
599 -140 0
-599 600 140 0
601 -554 0
601 -142 0
-601 554 142 0
70 -97 0
70 -146 0
-70 97 146 0
602 -106 0
602 -182 0
-602 106 182 0
403 -99 0
403 -150 0
-403 99 150 0
407 -105 0
407 -150 0
-407 105 150 0
603 -189 0
603 -123 0
-603 189 123 0
247 -604 0
247 -191 0
-247 604 191 0
605 -153 0
605 -112 0
-605 153 112 0
377 109 0
377 152 0
-377 -109 -152 0
475 -159 0
475 -377 0
-475 159 377 0
46 -44 0
46 -160 0
-46 44 160 0
606 104 0
606 139 0
-606 -104 -139 0
448 -106 0
448 -606 0
-448 106 606 0
546 93 0
546 142 0
-546 -93 -142 0
540 -99 0
540 -546 0
-540 99 546 0
607 -168 0
607 -182 0
-607 168 182 0
420 -340 0
420 -106 0
-420 340 106 0
242 -97 0
242 -343 0
-242 97 343 0
58 -608 0
58 -226 0
-58 608 226 0
248 -110 0
248 -226 0
-248 110 226 0
609 -189 0
609 -205 0
-609 189 205 0
610 -62 0
610 -214 0
-610 62 214 0
611 -220 0
611 -143 0
-611 220 143 0
612 -364 0
612 -105 0
-612 364 105 0
613 -168 0
613 -225 0
-613 168 225 0
614 -233 0
614 -154 0
-614 233 154 0
615 -183 0
615 -241 0
-615 183 241 0
616 -617 0
616 -404 0
-616 617 404 0
59 -106 0
59 -249 0
-59 106 249 0
526 -618 0
526 -282 0
-526 618 282 0
317 -619 0
317 -282 0
-317 619 282 0
304 -431 0
304 -487 0
-304 431 487 0
527 -62 0
527 -292 0
-527 62 292 0
318 -168 0
318 -293 0
-318 168 293 0
620 -118 0
620 -298 0
-620 118 298 0
621 -428 0
621 -574 0
-621 428 574 0
264 109 0
264 205 0
-264 -109 -205 0
-622 -102 0
-622 -62 0
622 102 62 0
623 624 0
623 622 0
-623 -624 -622 0
541 94 0
541 134 0
-541 -94 -134 0
71 97 0
71 146 0
-71 -97 -146 0
625 626 0
625 379 0
-625 -626 -379 0
424 627 0
424 410 0
-424 -627 -410 0
628 597 0
628 593 0
-628 -597 -593 0
629 175 0
629 148 0
-629 -175 -148 0
630 631 0
630 106 0
-630 -631 -106 0
632 633 0
632 71 0
-632 -633 -71 0
423 465 0
423 163 0
-423 -465 -163 0
427 198 0
427 158 0
-427 -198 -158 0
634 635 0
634 195 0
-634 -635 -195 0
436 206 0
436 425 0
-436 -206 -425 0
-439 -111 0
-439 -162 0
439 111 162 0
256 205 0
256 439 0
-256 -205 -439 0
441 636 0
441 385 0
-441 -636 -385 0
637 99 0
637 628 0
-637 -99 -628 0
501 104 0
501 629 0
-501 -104 -629 0
561 102 0
561 632 0
-561 -102 -632 0
638 596 0
638 609 0
-638 -596 -609 0
476 116 0
476 638 0
-476 -116 -638 0
485 220 0
485 255 0
-485 -220 -255 0
639 96 0
639 616 0
-639 -96 -616 0
283 640 0
283 236 0
-283 -640 -236 0
-314 -641 0
-314 -492 0
314 641 492 0
89 306 0
89 524 0
-89 -306 -524 0
577 305 0
577 535 0
-577 -305 -535 0
4 -518 0
4 -537 0
-4 518 537 0
642 -528 0
642 -511 0
-642 528 511 0
7 -642 0
7 -543 0
-7 642 543 0
10 -513 0
10 -547 0
-10 513 547 0
13 -505 0
13 -549 0
-13 505 549 0
643 -555 0
643 -516 0
-643 555 516 0
22 -643 0
22 -502 0
-22 643 502 0
-28 625 0
-28 621 0
28 -625 -621 0
-49 611 0
-49 613 0
49 -611 -613 0
55 -490 0
55 -118 0
-55 490 118 0
76 -551 0
76 -413 0
-76 551 413 0
82 -355 0
82 -408 0
-82 355 408 0
-88 620 0
-88 577 0
88 -620 -577 0
644 -470 0
644 -337 0
-644 470 337 0
91 -644 0
91 -353 0
-91 644 353 0
-210 100 0
-210 119 0
210 -100 -119 0
-263 603 0
-263 614 0
263 -603 -614 0
-275 146 0
-275 150 0
275 -146 -150 0
295 -454 0
295 -486 0
-295 454 486 0
-303 96 0
-303 98 0
303 -96 -98 0
-645 111 0
-645 146 0
645 -111 -146 0
-346 645 0
-346 646 0
346 -645 -646 0
-350 106 0
-350 109 0
350 -106 -109 0
-352 107 0
-352 154 0
352 -107 -154 0
-360 168 0
-360 173 0
360 -168 -173 0
-366 110 0
-366 188 0
366 -110 -188 0
-369 367 0
-369 113 0
369 -367 -113 0
-647 99 0
-647 370 0
647 -99 -370 0
-372 647 0
-372 192 0
372 -647 -192 0
-378 113 0
-378 375 0
378 -113 -375 0
-387 106 0
-387 109 0
387 -106 -109 0
-390 385 0
-390 386 0
390 -385 -386 0
-400 591 0
-400 594 0
400 -591 -594 0
-406 592 0
-406 602 0
406 -592 -602 0
-414 233 0
-414 183 0
414 -233 -183 0
-429 228 0
-429 239 0
429 -228 -239 0
-432 116 0
-432 430 0
432 -116 -430 0
-435 634 0
-435 166 0
435 -634 -166 0
443 -351 0
443 -394 0
-443 351 394 0
453 -62 0
453 -115 0
-453 62 115 0
-455 97 0
-455 451 0
455 -97 -451 0
-459 116 0
-459 246 0
459 -116 -246 0
-464 462 0
-464 463 0
464 -462 -463 0
469 -418 0
469 -172 0
-469 418 172 0
-471 98 0
-471 343 0
471 -98 -343 0
-473 607 0
-473 615 0
473 -607 -615 0
-484 274 0
-484 623 0
484 -274 -623 0
-494 98 0
-494 105 0
494 -98 -105 0
-496 610 0
-496 212 0
496 -610 -212 0
-500 612 0
-500 50 0
500 -612 -50 0
-503 499 0
-503 207 0
503 -499 -207 0
-506 284 0
-506 504 0
506 -284 -504 0
-508 120 0
-508 284 0
508 -120 -284 0
-512 509 0
-512 146 0
512 -509 -146 0
-514 102 0
-514 648 0
514 -102 -648 0
-517 358 0
-517 144 0
517 -358 -144 0
-519 117 0
-519 297 0
519 -117 -297 0
-523 99 0
-523 521 0
523 -99 -521 0
-529 98 0
-529 525 0
529 -98 -525 0
-531 94 0
-531 530 0
531 -94 -530 0
536 -117 0
536 -120 0
-536 117 120 0
-545 601 0
-545 637 0
545 -601 -637 0
-548 62 0
-548 544 0
548 -62 -544 0
-552 550 0
-552 156 0
552 -550 -156 0
-556 554 0
-556 142 0
556 -554 -142 0
-558 98 0
-558 557 0
558 -98 -557 0
-560 599 0
-560 606 0
560 -599 -606 0
-562 94 0
-562 559 0
562 -94 -559 0
-566 563 0
-566 564 0
566 -563 -564 0
-570 111 0
-570 563 0
570 -111 -563 0
-572 183 0
-572 327 0
572 -183 -327 0
-578 646 0
-578 576 0
578 -646 -576 0
-584 117 0
-584 583 0
584 -117 -583 0
649 -565 0
649 -582 0
-649 565 582 0
588 -649 0
588 -507 0
-588 649 507 0
600 -95 0
600 -98 0
-600 95 98 0
604 -109 0
604 -112 0
-604 109 112 0
608 -107 0
608 -111 0
-608 107 111 0
617 -362 0
617 -361 0
-617 362 361 0
618 -105 0
618 -142 0
-618 105 142 0
619 -96 0
619 -509 0
-619 96 509 0
-650 100 0
-650 116 0
650 -100 -116 0
-624 650 0
-624 651 0
624 -650 -651 0
-626 595 0
-626 156 0
626 -595 -156 0
-627 114 0
-627 160 0
627 -114 -160 0
-631 177 0
-631 98 0
631 -177 -98 0
-633 590 0
-633 598 0
633 -590 -598 0
-635 605 0
-635 386 0
635 -605 -386 0
-636 105 0
-636 106 0
636 -105 -106 0
-640 639 0
-640 630 0
640 -639 -630 0
652 -389 0
652 -368 0
-652 389 368 0
641 -652 0
641 -437 0
-641 652 437 0
